100
125 125
1 87 903
2 87 255
3 87 279
4 87 365
5 87 957
6 84 206
7 83 117
8 83 54
9 83 666
10 83 450
11 83 152
12 83 79
13 82 278
14 80 981
15 80 73
16 80 189
17 79 673
18 79 803
19 79 465
20 79 513
21 78 170
22 77 407
23 77 923
24 77 632
25 77 746
26 76 710
27 76 642
28 76 121
29 75 693
30 74 198
31 72 191
32 71 756
33 71 92
34 70 340
35 70 254
36 69 500
37 68 203
38 67 453
39 67 158
40 66 803
41 66 418
42 66 816
43 66 932
44 65 288
45 64 246
46 63 384
47 62 296
48 60 887
49 59 199
50 59 431
51 59 459
52 59 153
53 58 821
54 57 168
55 57 213
56 56 762
57 56 625
58 56 49
59 56 392
60 55 610
61 55 523
62 54 605
63 51 398
64 51 153
65 50 648
66 50 994
67 50 521
68 50 377
69 49 818
70 48 808
71 48 94
72 47 477
73 46 592
74 45 632
75 45 885
76 45 951
77 44 32
78 43 646
79 42 680
80 41 323
81 40 64
82 39 203
83 36 883
84 34 284
85 34 696
86 33 641
87 33 873
88 33 482
89 32 555
90 31 991
91 30 330
92 30 67
93 29 262
94 28 370
95 27 787
96 27 644
97 25 820
98 25 376
99 25 961
100 25 380
